Name: Ing0506-1
Courses: 108
Rooms: 18
Days: 5
Periods_per_day: 5
Curricula: 70
Constraints: 632

COURSES:
c0006 t000 3 3 145
c0011 t001 3 3 25
c0018 t002 3 3 42
c0026 t003 3 3 45
c0027 t004 3 3 45
c0046 t005 3 3 75
c0050 t006 3 2 67
c0051 t007 3 3 128
c0059 t008 3 3 128
c0064 t009 3 3 67
c0073 t010 3 3 68
c0080 t011 3 3 30
c0085 t012 3 3 67
c0091 t012 3 3 20
c0097 t013 3 3 100
c0099 t014 3 3 130
c0101 t015 3 3 100
c0105 t016 3 2 182
c0109 t017 3 3 100
c0128 t018 3 3 130
c0137 t019 3 2 200
c0142 t020 3 3 130
c0143 t021 3 3 120
c0154 t022 3 2 150
c0180 t000 3 3 190
c0184 t023 3 3 119
c0185 t024 3 3 119
c0600 t025 3 3 38
c0718 t026 3 3 3
c0724 t027 3 3 70
c0793 t004 3 3 10
c0803 t017 3 3 25
c0806 t028 3 3 5
c0816 t029 3 3 28
c0820 t029 3 3 20
c0821 t030 3 3 10
c0823 t031 3 3 20
c0824 t030 3 3 10
c0826 t031 3 3 20
c0189 t032 3 3 90
c0199 t033 3 3 90
c0200 t034 3 3 90
c0202 t035 3 3 158
c0212 t036 3 3 145
c0216 t037 3 3 145
c0220 t038 3 3 100
c0228 t039 3 3 100
c0231 t040 3 3 85
c0243 t037 3 3 65
c0247 t041 3 3 60
c0261 t042 3 3 142
c0281 t043 3 3 90
c0417 t044 3 3 30
c0422 t038 3 3 27
c0427 t045 3 3 78
c0429 t046 3 3 122
c0433 t019 3 2 30
c0439 t047 3 3 60
c0440 t048 3 3 30
c0442 t049 3 3 30
c0446 t050 3 3 3
c1009 t051 3 3 113
c1013 t052 3 3 150
c1020 t053 3 3 25
c1023 t054 3 3 50
c1027 t055 5 4 50
c1028 t055 3 3 50
c1031 t056 5 4 50
c1032 t056 3 3 50
c1033 t057 5 4 50
c1034 t057 3 3 50
c1042 t044 3 3 110
c0450 t023 3 3 83
c0452 t058 3 3 60
c0462 t059 3 3 68
c0463 t060 3 3 68
c0474 t061 3 3 80
c0484 t062 3 3 45
c0489 t051 3 3 30
c0495 t063 3 3 23
c0513 t027 3 3 70
c0516 t064 3 3 40
c0519 t065 2 2 60
c0521 t065 3 3 60
c0524 t013 3 2 45
c0533 t066 3 3 25
c0536 t067 3 3 10
c0830 t068 3 3 40
c0836 t069 3 3 80
c0840 t070 3 3 100
c0846 t070 3 3 100
c0852 t071 3 2 100
c0855 t072 7 2 100
c0881 t073 3 3 120
c0896 t074 3 2 150
c0898 t075 3 3 20
c0935 t076 5 4 100
c0949 t077 7 2 40
c0951 t078 7 2 40
c0957 t079 7 2 50
c0959 t080 7 2 50
c0961 t081 7 2 50
c0965 t082 7 2 40
c1057 t017 3 3 20
c1058 t083 3 3 67
c1067 t084 3 3 15
c1068 t085 3 3 45
c1089 t086 5 4 50

ROOMS:
25	40
36	42
37	42
38	48
31	50
27	65
51	90
B	216
D	216
F	216
G	216
A	312
L	336
50	85
52	60
DS1	80
DS2	60
N	30

CURRICULA:
q000  2 c1033 c1034 
q001  4 c0180 c0097 c0101 c0109 
q002  3 c0099 c0105 c0935 
q003  2 c1023 c1089 
q004  3 c0006 c0216 c0212 
q005  4 c0006 c0216 c0212 c0085 
q006  4 c0006 c0216 c0212 c0427 
q007  5 c0011 c0018 c0026 c0027 c1020 
q008  5 c0231 c0220 c0427 c0080 c0091 
q009  5 c0823 c0011 c0826 c0898 c0830 
q010  2 c1027 c1028 
q011  4 c0051 c0059 c1009 c1013 
q012  4 c0050 c0064 c1058 c0046 
q013  4 c0050 c0064 c0073 c1058 
q014  4 c0050 c0064 c0261 c1058 
q017  4 c0212 c0006 c0216 c0228 
q019  4 c0220 c0231 c0137 c0085 
q020  4 c0220 c0243 c0247 c0137 
q021  4 c0220 c0137 c0427 c0247 
q022  2 c1031 c1032 
q023  4 c0180 c0189 c0199 c0200 
q024  4 c0184 c0185 c0105 c0202 
q025  4 c0184 c0185 c0105 c0018 
q026  4 c0184 c0185 c0105 c0429 
q027  3 c0154 c0896 c0961 
q028  3 c0154 c0896 c0957 
q029  3 c0154 c0896 c0959 
q030  4 c0128 c0142 c0881 c0951 
q031  4 c0128 c0142 c0881 c0965 
q032  3 c0128 c0142 c0898 
q033  4 c0128 c0142 c0881 c0949 
q034  3 c0137 c0143 c1042 
q035  2 c0137 c0143 
q038  3 c0046 c0051 c0059 
q039  4 c0184 c0185 c0261 c0202 
q040  4 c0184 c0185 c0261 c0474 
q041  4 c0184 c0185 c0261 c0281 
q042  5 c0450 c1009 c0600 c0202 c0474 
q043  5 c0450 c1009 c0600 c0202 c0281 
q044  5 c0450 c0452 c0429 c0261 c0202 
q045  5 c0450 c0452 c0018 c0261 c0202 
q046  4 c0462 c0463 c0073 c0495 
q047  4 c0462 c0463 c0489 c0474 
q048  3 c0462 c0463 c0099 
q049  5 c0462 c0463 c0027 c0803 c0026 
q050  4 c0439 c0836 c0417 c0243 
q051  6 c0433 c0836 c0231 c0439 c0440 c0442 
q052  5 c0422 c0816 c0247 c0427 c0429 
q053  4 c0422 c0429 c0085 c0446 
q054  4 c0422 c0429 c0085 c0816 
q055  4 c0422 c0429 c0085 c0718 
q056  4 c0422 c0429 c0085 c0427 
q057  5 c0474 c0281 c0073 c0261 c1013 
q058  5 c0474 c0281 c0261 c0495 c1013 
q059  4 c0474 c0281 c0073 c1013 
q060  3 c0484 c1068 c0489 
q061  4 c0484 c1068 c0600 c1067 
q062  3 c0484 c1068 c0524 
q063  3 c0513 c0724 c0516 
q064  3 c0513 c0724 c0429 
q065  3 c0519 c0521 c0524 
q066  4 c0519 c0521 c0533 c1057 
q067  3 c0519 c0521 c0536 
q068  5 c0793 c0830 c0026 c0027 c1020 
q069  5 c0816 c0836 c0427 c0820 c0830 
q070  4 c0836 c0830 c0427 c0820 
q071  4 c0803 c0533 c0806 c0080 
q072  5 c0821 c0823 c0826 c0080 c0824 
q073  4 c0821 c0823 c0824 c0826 
q074  4 c0840 c0846 c0852 c0855 

UNAVAILABILITY_CONSTRAINTS:
c0006 0 0
c0006 1 0
c0006 2 0
c0006 2 1
c0006 2 2
c0006 2 3
c0006 2 4
c0006 3 0
c0006 4 0
c0006 4 4
c0018 0 0
c0018 0 1
c0018 0 2
c0018 0 3
c0018 0 4
c0018 4 2
c0018 4 3
c0018 4 4
c0026 0 2
c0026 1 2
c0026 2 2
c0026 3 2
c0026 4 2
c0046 0 2
c0046 1 0
c0046 1 2
c0046 1 3
c0046 1 4
c0046 2 2
c0046 3 2
c0046 4 2
c0050 2 0
c0050 2 1
c0050 2 2
c0050 2 3
c0050 2 4
c0050 3 0
c0050 3 1
c0050 3 2
c0050 3 3
c0050 3 4
c0050 4 0
c0050 4 1
c0050 4 2
c0050 4 3
c0050 4 4
c0059 0 0
c0059 2 0
c0059 3 0
c0059 3 1
c0059 3 2
c0059 3 3
c0059 3 4
c0059 4 0
c0064 0 0
c0064 0 1
c0064 0 2
c0064 0 3
c0064 0 4
c0064 4 0
c0064 4 3
c0064 4 4
c0073 0 0
c0073 0 1
c0073 0 2
c0073 0 3
c0073 0 4
c0073 4 0
c0073 4 1
c0073 4 2
c0073 4 3
c0073 4 4
c0085 0 0
c0085 4 4
c0091 0 0
c0091 0 4
c0091 1 4
c0091 2 4
c0091 3 4
c0091 4 4
c0097 0 0
c0097 0 1
c0097 0 2
c0097 0 3
c0097 0 4
c0097 1 0
c0097 1 1
c0097 4 0
c0097 4 1
c0097 4 2
c0097 4 3
c0097 4 4
c0099 1 0
c0099 1 1
c0099 1 2
c0099 1 3
c0099 1 4
c0099 2 3
c0099 3 3
c0099 3 4
c0105 0 0
c0105 0 1
c0105 0 2
c0105 3 0
c0105 3 1
c0105 3 2
c0105 3 3
c0105 3 4
c0105 4 0
c0105 4 1
c0105 4 2
c0105 4 3
c0105 4 4
c0128 0 2
c0128 0 4
c0128 1 2
c0128 1 4
c0128 2 2
c0128 2 4
c0128 3 2
c0128 4 2
c0128 4 4
c0137 0 0
c0137 0 1
c0137 0 2
c0137 4 0
c0137 4 1
c0137 4 2
c0137 4 3
c0137 4 4
c0142 0 2
c0142 1 2
c0142 1 4
c0154 0 3
c0154 0 4
c0154 1 3
c0154 1 4
c0154 2 3
c0154 2 4
c0154 3 2
c0154 3 3
c0154 3 4
c0154 4 2
c0154 4 4
c0180 0 0
c0180 0 1
c0180 0 2
c0180 0 3
c0180 0 4
c0180 1 0
c0180 2 0
c0180 3 0
c0180 4 0
c0180 4 1
c0180 4 2
c0180 4 3
c0180 4 4
c0184 3 2
c0184 3 3
c0184 3 4
c0184 4 0
c0184 4 1
c0184 4 2
c0184 4 3
c0184 4 4
c0185 1 2
c0185 1 3
c0185 1 4
c0185 4 0
c0185 4 1
c0185 4 2
c0185 4 3
c0185 4 4
c0600 0 0
c0600 0 4
c0600 1 0
c0600 2 0
c0600 3 0
c0600 3 4
c0600 4 0
c0600 4 4
c0724 0 0
c0724 0 1
c0724 0 2
c0724 1 0
c0724 2 0
c0724 3 0
c0724 4 0
c0724 4 4
c0806 0 4
c0806 1 4
c0806 2 4
c0806 3 4
c0806 4 3
c0806 4 4
c0816 0 0
c0816 0 1
c0816 0 2
c0816 0 3
c0816 0 4
c0820 0 0
c0820 0 1
c0820 0 2
c0820 0 3
c0820 0 4
c0199 3 2
c0199 3 3
c0199 3 4
c0199 4 0
c0199 4 1
c0199 4 2
c0199 4 3
c0199 4 4
c0200 0 1
c0200 0 2
c0200 1 1
c0200 1 2
c0200 2 1
c0200 2 2
c0200 3 2
c0200 4 2
c0202 3 0
c0202 3 1
c0202 3 2
c0202 3 3
c0202 3 4
c0202 4 0
c0202 4 1
c0202 4 2
c0202 4 3
c0202 4 4
c0212 0 4
c0212 1 4
c0212 2 4
c0212 3 4
c0212 4 3
c0212 4 4
c0228 0 0
c0228 0 1
c0228 0 3
c0228 0 4
c0228 1 0
c0228 1 1
c0228 1 3
c0228 1 4
c0228 2 0
c0228 2 1
c0228 2 3
c0228 2 4
c0228 3 0
c0228 3 1
c0228 3 3
c0228 3 4
c0228 4 0
c0228 4 1
c0228 4 3
c0228 4 4
c0231 0 0
c0231 0 2
c0231 1 2
c0231 2 0
c0231 2 2
c0231 3 2
c0231 4 0
c0231 4 2
c0261 2 2
c0261 2 3
c0261 2 4
c0261 3 0
c0261 3 1
c0261 3 2
c0261 3 3
c0261 3 4
c0281 0 4
c0281 1 4
c0281 2 4
c0281 3 4
c0281 4 4
c0427 1 4
c0427 2 4
c0427 3 4
c0427 4 0
c0427 4 1
c0427 4 2
c0427 4 3
c0427 4 4
c0429 0 0
c0429 0 4
c0429 1 4
c0429 2 4
c0429 3 4
c0429 4 2
c0429 4 3
c0429 4 4
c0433 0 0
c0433 0 1
c0433 0 2
c0433 4 0
c0433 4 1
c0433 4 2
c0433 4 3
c0433 4 4
c0440 0 0
c0440 0 1
c0440 0 2
c0440 0 3
c0440 0 4
c0440 1 0
c0440 1 1
c0440 1 2
c0442 0 0
c0442 0 1
c0442 0 2
c0442 0 3
c0442 0 4
c0442 4 2
c0442 4 3
c0442 4 4
c1009 0 2
c1009 0 3
c1009 0 4
c1009 2 2
c1009 2 3
c1009 2 4
c1020 0 0
c1020 0 1
c1020 0 2
c1020 0 3
c1020 0 4
c1020 4 0
c1020 4 1
c1020 4 2
c1020 4 3
c1020 4 4
c1023 0 0
c1023 0 1
c1023 0 2
c1023 0 4
c1023 1 0
c1023 1 1
c1023 1 2
c1023 1 4
c1023 2 0
c1023 2 1
c1023 2 2
c1023 2 4
c1023 3 0
c1023 3 1
c1023 3 2
c1023 3 4
c1023 4 0
c1023 4 1
c1023 4 2
c1023 4 4
c1028 0 0
c1028 0 1
c1028 0 2
c1028 0 4
c1028 1 0
c1028 1 1
c1028 1 2
c1028 1 4
c1028 2 0
c1028 2 1
c1028 2 2
c1028 2 4
c1028 3 0
c1028 3 1
c1028 3 2
c1028 3 4
c1028 4 0
c1028 4 1
c1028 4 2
c1028 4 4
c1031 0 0
c1031 1 0
c1031 2 0
c1031 3 0
c1031 3 2
c1031 4 0
c1031 4 2
c1031 4 3
c1032 0 0
c1032 0 1
c1032 0 2
c1032 0 4
c1032 1 0
c1032 1 1
c1032 1 2
c1032 1 4
c1032 2 0
c1032 2 1
c1032 2 2
c1032 2 4
c1032 3 0
c1032 3 1
c1032 3 2
c1032 3 4
c1032 4 0
c1032 4 1
c1032 4 2
c1032 4 4
c1033 0 2
c1033 0 3
c1033 0 4
c1033 1 2
c1033 1 3
c1033 1 4
c1033 2 2
c1033 2 3
c1033 2 4
c1033 3 2
c1033 3 3
c1033 3 4
c1033 4 2
c1033 4 3
c1033 4 4
c1034 0 0
c1034 0 1
c1034 0 2
c1034 0 4
c1034 1 0
c1034 1 1
c1034 1 2
c1034 1 4
c1034 2 0
c1034 2 1
c1034 2 2
c1034 2 4
c1034 3 0
c1034 3 1
c1034 3 2
c1034 3 4
c1034 4 0
c1034 4 1
c1034 4 2
c1034 4 4
c0450 3 2
c0450 3 3
c0450 3 4
c0450 4 0
c0450 4 1
c0450 4 2
c0450 4 3
c0450 4 4
c0452 0 0
c0452 0 1
c0452 0 2
c0452 0 3
c0452 0 4
c0452 2 2
c0452 2 3
c0452 2 4
c0452 4 0
c0452 4 1
c0452 4 2
c0452 4 3
c0452 4 4
c0462 0 0
c0462 0 1
c0462 0 2
c0462 0 3
c0462 0 4
c0462 4 2
c0462 4 3
c0462 4 4
c0474 0 0
c0474 0 1
c0474 0 2
c0474 0 3
c0474 0 4
c0474 4 2
c0474 4 3
c0474 4 4
c0484 0 0
c0484 0 1
c0484 0 2
c0484 0 3
c0484 0 4
c0484 2 2
c0484 2 3
c0484 2 4
c0484 4 2
c0484 4 3
c0484 4 4
c0513 0 0
c0513 0 1
c0513 0 2
c0513 1 0
c0513 2 0
c0513 3 0
c0513 4 0
c0513 4 4
c0516 1 0
c0516 1 1
c0516 1 2
c0516 1 3
c0516 1 4
c0516 4 0
c0516 4 1
c0516 4 2
c0516 4 3
c0516 4 4
c0519 0 0
c0519 0 1
c0519 0 2
c0519 0 3
c0519 0 4
c0519 1 2
c0519 2 2
c0519 3 2
c0519 4 2
c0519 4 3
c0519 4 4
c0524 0 0
c0524 0 1
c0524 0 2
c0524 0 3
c0524 0 4
c0524 1 0
c0524 1 1
c0524 4 0
c0524 4 1
c0524 4 2
c0524 4 3
c0524 4 4
c0533 0 0
c0533 1 0
c0533 2 0
c0533 3 0
c0533 4 0
c0533 4 2
c0533 4 3
c0533 4 4
c0536 0 0
c0536 0 1
c0536 0 2
c0536 0 3
c0536 0 4
c0536 4 0
c0536 4 1
c0536 4 2
c0830 0 0
c0830 0 1
c0830 0 2
c0830 0 3
c0830 0 4
c0830 1 0
c0830 2 0
c0830 3 0
c0840 3 2
c0840 4 2
c0840 4 4
c0846 3 2
c0846 4 2
c0846 4 4
c0852 0 0
c0852 0 1
c0852 0 2
c0852 3 2
c0852 4 0
c0852 4 1
c0852 4 2
c0852 4 3
c0852 4 4
c0881 0 0
c0881 0 1
c0881 0 2
c0881 1 0
c0881 1 2
c0881 1 4
c0881 2 2
c0881 3 2
c0881 4 2
c0896 2 0
c0896 2 1
c0896 2 2
c0896 2 3
c0896 2 4
c0896 3 2
c0896 4 0
c0896 4 1
c0896 4 2
c0896 4 3
c0896 4 4
c0898 0 2
c0898 0 4
c0898 1 2
c0898 2 2
c0898 3 2
c0898 3 4
c0898 4 2
c0898 4 4
c0935 4 0
c0935 4 1
c0935 4 2
c0935 4 3
c0935 4 4
c1058 0 0
c1058 0 1
c1058 0 2
c1058 0 3
c1058 0 4
c1058 4 0
c1058 4 1
c1058 4 2
c1058 4 3
c1058 4 4
c1067 0 0
c1067 0 1
c1067 0 2
c1067 0 3
c1067 0 4
c1067 4 2
c1067 4 3
c1067 4 4
c1068 0 0
c1068 0 1
c1068 0 2
c1068 4 0
c1068 4 1
c1068 4 2
c1068 4 3
c1068 4 4
c1089 0 1
c1089 1 1
c1089 2 1
c1089 3 1
c1089 3 2
c1089 4 1
c1089 4 2
c1089 4 3

END.
